GGA = B3
AEXX = 0.2
AGGAX = 0.72
# Selects the HSE06 hybrid function
LHFCALC = .TRUE.
HFSCREEN = 0.2
ALGO = D
TIME = 0.4
ISMEAR = 0
SIGMA = 0.01
GGA = PE
