# Better preconverge with PBE first!
ISMEAR = 0
SIGMA = 0.01
GGA = PE
