Si54
1.0
	10.046695		0			5.800462
	3.348898		9.472115		5.800462
	0			0			11.600924
Si
54
direct
	0.291667 		0.291667 		0.291667 		Si
	0.291667 		0.291667 		0.625000 		Si
	0.291667 		0.291667 		0.958333 		Si
	0.291667 		0.625000 		0.291667 		Si
	0.291667 		0.625000 		0.625000 		Si
	0.291667 		0.625000 		0.958333 		Si
	0.291667 		0.958333 		0.291667 		Si
	0.291667 		0.958333 		0.625000 		Si
	0.291667 		0.958333 		0.958333 		Si
	0.625000 		0.291667 		0.291667 		Si
	0.625000 		0.291667 		0.625000 		Si
	0.625000 		0.291667 		0.958333 		Si
	0.625000 		0.625000 		0.291667 		Si
	0.625000 		0.625000 		0.625000 		Si
	0.625000 		0.625000 		0.958333 		Si
	0.625000 		0.958333 		0.291667 		Si
	0.625000 		0.958333 		0.625000 		Si
	0.625000 		0.958333 		0.958333 		Si
	0.958333 		0.291667 		0.291667 		Si
	0.958333 		0.291667 		0.625000 		Si
	0.958333 		0.291667 		0.958333 		Si
	0.958333 		0.625000 		0.291667 		Si
	0.958333 		0.625000 		0.625000 		Si
	0.958333 		0.625000 		0.958333 		Si
	0.958333 		0.958333 		0.291667 		Si
	0.958333 		0.958333 		0.625000 		Si
	0.958333 		0.958333 		0.958333 		Si
	0.041667 		0.041667 		0.041667 		Si
	0.041667 		0.041667 		0.375000 		Si
	0.041667 		0.041667 		0.708333 		Si
	0.041667 		0.375000 		0.041667 		Si
	0.041667 		0.375000 		0.375000 		Si
	0.041667 		0.375000 		0.708333 		Si
	0.041667 		0.708333 		0.041667 		Si
	0.041667 		0.708333 		0.375000 		Si
	0.041667 		0.708333 		0.708333 		Si
	0.375000 		0.041667 		0.041667 		Si
	0.375000 		0.041667 		0.375000 		Si
	0.375000 		0.041667 		0.708333 		Si
	0.375000 		0.375000 		0.041667 		Si
	0.375000 		0.375000 		0.375000 		Si
	0.375000 		0.375000 		0.708333 		Si
	0.375000 		0.708333 		0.041667 		Si
	0.375000 		0.708333 		0.375000 		Si
	0.375000 		0.708333 		0.708333 		Si
	0.708333 		0.041667 		0.041667 		Si
	0.708333 		0.041667 		0.375000 		Si
	0.708333 		0.041667 		0.708333 		Si
	0.708333 		0.375000 		0.041667		Si
	0.708333 		0.375000 		0.375000 		Si
	0.708333 		0.375000 		0.708333 		Si
	0.708333 		0.708333 		0.041667 		Si
	0.708333 		0.708333 		0.375000 		Si
	0.708333 		0.708333 		0.708333 		Si
