Automatic mesh
0
Gamma
  {% for d in kgrid.dimensions %}{{d}} {% endfor %}
  {% for s in kgrid.shifts %}{{s}} {% endfor %}
