Automatic mesh
0
Gamma
  {% for d in KGRID.DIMENSIONS %}{{d}} {% endfor %}
  {% for s in KGRID.SHIFTS %}{{s}} {% endfor %}
