ALGO = Normal
EDIFF = 0.0001
ENCUT = 520
IBRION = 2
ICHARG = 1
ISIF = 3
ISMEAR = 1
ISPIN = 2
LORBIT = 11
LREAL = Auto
LWAVE = False
MAGMOM = 8*0.6 16*5
NELM = 100
NCORE = 1
KPAR = {{ nodes }}
NSW = 1
PREC = Med
SIGMA = 0.2
